36
5
0 5 8 11 12 13 15 17 18 19 20 24 25 26 28 29 30 31 32
1 7 8 11 13 18 20 21 23 24 25 26 27 28 30 32 33 34 35
2 7 9 13 14 15 17 18 20 21 22 23 26 27 28 31 32 33 34 35
3 10 14 16 18 19 20 25 28 29 33 35
4 6 12 24 27 31 35
